Number of nodes: 18
Number of edges: 46
Number of scenario nodes: 84
Set parameter Username
Academic license - for non-commercial use only - expires 2025-02-04
Set parameter MIPFocus to value 1
Set parameter Heuristics to value 0.5
Set parameter ImproveStartGap to value 0.05
Gurobi Optimizer version 11.0.3 build v11.0.3rc0 (mac64[x86] - Darwin 23.4.0 23E214)

CPU model: Intel(R) Core(TM) i7-1060NG7 CPU @ 1.20GHz
Thread count: 4 physical cores, 8 logical processors, using up to 8 threads

Optimize a model with 69032 rows, 96448 columns and 435760 nonzeros
Model fingerprint: 0xfd5fb338
Model has 2944 quadratic constraints
Coefficient statistics:
  Matrix range     [2e-01, 1e+00]
  QMatrix range    [1e+00, 1e+00]
  Objective range  [3e-02, 1e+04]
  Bounds range     [0e+00, 0e+00]
  RHS range        [2e+01, 1e+03]
Presolve removed 39286 rows and 45982 columns

Continuous model is non-convex -- solving as a MIP

Presolve removed 52036 rows and 68228 columns
Presolve time: 0.77s
Presolved: 497124 rows, 147517 columns, 1117994 nonzeros
Presolved model has 119296 bilinear constraint(s)
Warning: Model contains variables with very large bounds participating
         in product terms.
         Presolve was not able to compute smaller bounds for these variables.
         Consider bounding these variables or reformulating the model.

Variable types: 147517 continuous, 0 integer (0 binary)

Deterministic concurrent LP optimizer: primal simplex, dual simplex, and barrier
Showing barrier log only...

Root barrier log...

Elapsed ordering time = 5s
Ordering time: 10.62s

Barrier statistics:
 AA' NZ     : 5.088e+06
 Factor NZ  : 4.213e+07 (roughly 500 MB of memory)
 Factor Ops : 1.306e+10 (roughly 1 second per iteration)
 Threads    : 2

                  Objective                Residual
Iter       Primal          Dual         Primal    Dual     Compl     Time
   0  -8.23607951e+07  3.87584568e+09  1.38e+05 5.00e+00  4.59e+05    52s
   1  -6.57245139e+07  4.15543932e+09  7.53e+04 1.53e+01  2.50e+05    55s
   2  -5.55754178e+07  3.69718004e+09  3.15e+04 4.42e+00  1.19e+05    57s
   3  -2.53137005e+07  2.77610753e+09  6.61e+02 1.31e+00  1.22e+04    60s
   4  -1.44128468e+07  6.23039072e+08  9.52e+01 8.53e-12  2.02e+03    63s
   5  -6.93391404e+06  2.86408867e+08  4.53e+01 3.10e-12  8.60e+02    66s

Barrier performed 5 iterations in 65.55 seconds (17.24 work units)
Barrier solve interrupted - model solved by another algorithm

Concurrent spin time: 9.21s (can be avoided by choosing Method=3)

Solved with primal simplex

Root relaxation: objective 1.235612e+04, 39132 iterations, 33.60 seconds (10.36 work units)

    Nodes    |    Current Node    |     Objective Bounds      |     Work
 Expl Unexpl |  Obj  Depth IntInf | Incumbent    BestBd   Gap | It/Node Time

     0     0 12356.1167    0  349          - 12356.1167      -     -   68s
     0     0 12356.1167    0  413          - 12356.1167      -     -   71s
     0     0 12356.1167    0  413          - 12356.1167      -     -   76s
H    0     0                    12324.537505 12356.1167  0.26%     -  382s

Resetting heuristic parameters to focus on improving solution
(using Heuristics=0.5 and RINS=10)...

     0     0 12356.1167    0  412 12324.5375 12356.1167  0.26%     -  434s
     0     0 12356.1167    0  412 12324.5375 12356.1167  0.26%     -  442s
H    0     0                    12356.116667 12356.1167  0.00%     -  728s
     0     0 12356.1167    0  412 12356.1167 12356.1167  0.00%     -  728s

Cutting planes:
  RLT: 72

Explored 1 nodes (69435 simplex iterations) in 728.29 seconds (61.19 work units)
Thread count was 8 (of 8 available processors)

Solution count 2: 12356.1 12324.5

Optimal solution found (tolerance 1.00e-04)
Best objective 1.235611666667e+04, best bound 1.235611666667e+04, gap 0.0000%
